K = 5;

P = [ 25 64 51 35 11 ];

R = [ 4 45 16 24 6 ];

A = [ 6 4 5 5 2 ];

C = [ 8 9 4 7 9 ];

N = 5;

M = [
[ 0 40 17 19 39 ]
[ 40 0 37 36 24 ]
[ 17 37 0 7 29 ]
[ 19 36 7 0 31 ]
[ 39 24 29 31 0 ]
 ];

